p cnf 276 1100
c p weight 114 0 0
c p weight -114 1 0
c p weight 115 1.0 0
c p weight -115 1 0
110 -109 107 0
110 -109 108 0
-110 109 107 0
-110 109 108 0
110 109 -107 -108 0
-110 -109 -107 -108 0
111 107 -108 0
111 -107 108 0
-111 107 108 0
-111 -107 -108 0
112 113 -110 0
112 -110 111 0
-112 113 110 0
-112 110 111 0
112 -110 -107 0
-112 110 -107 0
112 -113 110 107 -111 0
-112 -113 -110 107 -111 0
113 -107 111 0
-113 107 111 0
-114 111 0
113 -114 -107 0
-113 -114 107 0
113 114 107 -111 0
-113 114 -107 -111 0
-115 111 0
113 -115 107 0
-113 -115 -107 0
113 115 -107 -111 0
-113 115 107 -111 0
116 -112 113 0
116 -112 111 0
-116 112 113 0
-116 112 111 0
116 112 -113 -111 0
-116 -112 -113 -111 0
117 113 -111 0
117 -113 111 0
-117 113 111 0
-117 -113 -111 0
118 -116 113 0
118 -116 106 0
-118 116 113 0
-118 116 106 0
118 -116 105 -117 0
118 -116 -105 117 0
-118 116 105 -117 0
-118 116 -105 117 0
118 116 -113 105 117 -106 0
118 116 -113 -105 -117 -106 0
-118 -116 -113 105 117 -106 0
-118 -116 -113 -105 -117 -106 0
120 113 -105 0
120 -113 105 0
-120 113 105 0
-120 -113 -105 0
119 117 -106 0
119 -117 106 0
-119 117 106 0
-119 -117 -106 0
121 -118 120 0
121 -118 104 0
-121 118 120 0
-121 118 104 0
121 -118 103 -106 0
121 -118 -103 106 0
-121 118 103 -106 0
-121 118 -103 106 0
121 118 -120 103 106 -104 0
121 118 -120 -103 -106 -104 0
-121 -118 -120 103 106 -104 0
-121 -118 -120 -103 -106 -104 0
123 120 -103 0
123 -120 103 0
-123 120 103 0
-123 -120 -103 0
122 106 -104 0
122 -106 104 0
-122 106 104 0
-122 -106 -104 0
124 -121 123 0
124 -121 102 0
-124 121 123 0
-124 121 102 0
124 -121 101 -104 0
124 -121 -101 104 0
-124 121 101 -104 0
-124 121 -101 104 0
124 121 -123 101 104 -102 0
124 121 -123 -101 -104 -102 0
-124 -121 -123 101 104 -102 0
-124 -121 -123 -101 -104 -102 0
126 123 -101 0
126 -123 101 0
-126 123 101 0
-126 -123 -101 0
125 104 -102 0
125 -104 102 0
-125 104 102 0
-125 -104 -102 0
127 -124 126 0
127 -124 100 0
-127 124 126 0
-127 124 100 0
127 -124 99 -102 0
127 -124 -99 102 0
-127 124 99 -102 0
-127 124 -99 102 0
127 124 -126 99 102 -100 0
127 124 -126 -99 -102 -100 0
-127 -124 -126 99 102 -100 0
-127 -124 -126 -99 -102 -100 0
129 126 -99 0
129 -126 99 0
-129 126 99 0
-129 -126 -99 0
128 102 -100 0
128 -102 100 0
-128 102 100 0
-128 -102 -100 0
130 -127 129 0
130 -127 98 0
-130 127 129 0
-130 127 98 0
130 -127 97 -100 0
130 -127 -97 100 0
-130 127 97 -100 0
-130 127 -97 100 0
130 127 -129 97 100 -98 0
130 127 -129 -97 -100 -98 0
-130 -127 -129 97 100 -98 0
-130 -127 -129 -97 -100 -98 0
132 129 -97 0
132 -129 97 0
-132 129 97 0
-132 -129 -97 0
131 100 -98 0
131 -100 98 0
-131 100 98 0
-131 -100 -98 0
133 -130 132 0
133 -130 96 0
-133 130 132 0
-133 130 96 0
133 -130 95 -98 0
133 -130 -95 98 0
-133 130 95 -98 0
-133 130 -95 98 0
133 130 -132 95 98 -96 0
133 130 -132 -95 -98 -96 0
-133 -130 -132 95 98 -96 0
-133 -130 -132 -95 -98 -96 0
135 132 -95 0
135 -132 95 0
-135 132 95 0
-135 -132 -95 0
134 98 -96 0
134 -98 96 0
-134 98 96 0
-134 -98 -96 0
136 -133 135 0
136 -133 94 0
-136 133 135 0
-136 133 94 0
136 -133 93 -96 0
136 -133 -93 96 0
-136 133 93 -96 0
-136 133 -93 96 0
136 133 -135 93 96 -94 0
136 133 -135 -93 -96 -94 0
-136 -133 -135 93 96 -94 0
-136 -133 -135 -93 -96 -94 0
138 135 -93 0
138 -135 93 0
-138 135 93 0
-138 -135 -93 0
137 96 -94 0
137 -96 94 0
-137 96 94 0
-137 -96 -94 0
139 -136 138 0
139 -136 92 0
-139 136 138 0
-139 136 92 0
139 -136 91 -94 0
139 -136 -91 94 0
-139 136 91 -94 0
-139 136 -91 94 0
139 136 -138 91 94 -92 0
139 136 -138 -91 -94 -92 0
-139 -136 -138 91 94 -92 0
-139 -136 -138 -91 -94 -92 0
141 138 -91 0
141 -138 91 0
-141 138 91 0
-141 -138 -91 0
140 94 -92 0
140 -94 92 0
-140 94 92 0
-140 -94 -92 0
142 -139 141 0
142 -139 90 0
-142 139 141 0
-142 139 90 0
142 -139 89 -92 0
142 -139 -89 92 0
-142 139 89 -92 0
-142 139 -89 92 0
142 139 -141 89 92 -90 0
142 139 -141 -89 -92 -90 0
-142 -139 -141 89 92 -90 0
-142 -139 -141 -89 -92 -90 0
144 141 -89 0
144 -141 89 0
-144 141 89 0
-144 -141 -89 0
143 92 -90 0
143 -92 90 0
-143 92 90 0
-143 -92 -90 0
145 -142 144 0
145 -142 88 0
-145 142 144 0
-145 142 88 0
145 -142 87 -90 0
145 -142 -87 90 0
-145 142 87 -90 0
-145 142 -87 90 0
145 142 -144 87 90 -88 0
145 142 -144 -87 -90 -88 0
-145 -142 -144 87 90 -88 0
-145 -142 -144 -87 -90 -88 0
147 144 -87 0
147 -144 87 0
-147 144 87 0
-147 -144 -87 0
146 90 -88 0
146 -90 88 0
-146 90 88 0
-146 -90 -88 0
148 -145 147 0
148 -145 86 0
-148 145 147 0
-148 145 86 0
148 -145 85 -88 0
148 -145 -85 88 0
-148 145 85 -88 0
-148 145 -85 88 0
148 145 -147 85 88 -86 0
148 145 -147 -85 -88 -86 0
-148 -145 -147 85 88 -86 0
-148 -145 -147 -85 -88 -86 0
150 147 -85 0
150 -147 85 0
-150 147 85 0
-150 -147 -85 0
149 88 -86 0
149 -88 86 0
-149 88 86 0
-149 -88 -86 0
151 -148 150 0
151 -148 84 0
-151 148 150 0
-151 148 84 0
151 -148 83 -86 0
151 -148 -83 86 0
-151 148 83 -86 0
-151 148 -83 86 0
151 148 -150 83 86 -84 0
151 148 -150 -83 -86 -84 0
-151 -148 -150 83 86 -84 0
-151 -148 -150 -83 -86 -84 0
153 150 -83 0
153 -150 83 0
-153 150 83 0
-153 -150 -83 0
152 86 -84 0
152 -86 84 0
-152 86 84 0
-152 -86 -84 0
154 -151 153 0
154 -151 82 0
-154 151 153 0
-154 151 82 0
154 -151 81 -84 0
154 -151 -81 84 0
-154 151 81 -84 0
-154 151 -81 84 0
154 151 -153 81 84 -82 0
154 151 -153 -81 -84 -82 0
-154 -151 -153 81 84 -82 0
-154 -151 -153 -81 -84 -82 0
156 153 -81 0
156 -153 81 0
-156 153 81 0
-156 -153 -81 0
155 84 -82 0
155 -84 82 0
-155 84 82 0
-155 -84 -82 0
157 -154 156 0
157 -154 80 0
-157 154 156 0
-157 154 80 0
157 -154 79 -82 0
157 -154 -79 82 0
-157 154 79 -82 0
-157 154 -79 82 0
157 154 -156 79 82 -80 0
157 154 -156 -79 -82 -80 0
-157 -154 -156 79 82 -80 0
-157 -154 -156 -79 -82 -80 0
159 156 -79 0
159 -156 79 0
-159 156 79 0
-159 -156 -79 0
158 82 -80 0
158 -82 80 0
-158 82 80 0
-158 -82 -80 0
160 -157 159 0
160 -157 78 0
-160 157 159 0
-160 157 78 0
160 -157 77 -80 0
160 -157 -77 80 0
-160 157 77 -80 0
-160 157 -77 80 0
160 157 -159 77 80 -78 0
160 157 -159 -77 -80 -78 0
-160 -157 -159 77 80 -78 0
-160 -157 -159 -77 -80 -78 0
162 159 -77 0
162 -159 77 0
-162 159 77 0
-162 -159 -77 0
161 80 -78 0
161 -80 78 0
-161 80 78 0
-161 -80 -78 0
163 -160 162 0
163 -160 76 0
-163 160 162 0
-163 160 76 0
163 -160 75 -78 0
163 -160 -75 78 0
-163 160 75 -78 0
-163 160 -75 78 0
163 160 -162 75 78 -76 0
163 160 -162 -75 -78 -76 0
-163 -160 -162 75 78 -76 0
-163 -160 -162 -75 -78 -76 0
165 162 -75 0
165 -162 75 0
-165 162 75 0
-165 -162 -75 0
164 78 -76 0
164 -78 76 0
-164 78 76 0
-164 -78 -76 0
166 -163 165 0
166 -163 74 0
-166 163 165 0
-166 163 74 0
166 -163 73 -76 0
166 -163 -73 76 0
-166 163 73 -76 0
-166 163 -73 76 0
166 163 -165 73 76 -74 0
166 163 -165 -73 -76 -74 0
-166 -163 -165 73 76 -74 0
-166 -163 -165 -73 -76 -74 0
168 165 -73 0
168 -165 73 0
-168 165 73 0
-168 -165 -73 0
167 76 -74 0
167 -76 74 0
-167 76 74 0
-167 -76 -74 0
169 -166 168 0
169 -166 72 0
-169 166 168 0
-169 166 72 0
169 -166 71 -74 0
169 -166 -71 74 0
-169 166 71 -74 0
-169 166 -71 74 0
169 166 -168 71 74 -72 0
169 166 -168 -71 -74 -72 0
-169 -166 -168 71 74 -72 0
-169 -166 -168 -71 -74 -72 0
171 168 -71 0
171 -168 71 0
-171 168 71 0
-171 -168 -71 0
170 74 -72 0
170 -74 72 0
-170 74 72 0
-170 -74 -72 0
172 -169 171 0
172 -169 70 0
-172 169 171 0
-172 169 70 0
172 -169 69 -72 0
172 -169 -69 72 0
-172 169 69 -72 0
-172 169 -69 72 0
172 169 -171 69 72 -70 0
172 169 -171 -69 -72 -70 0
-172 -169 -171 69 72 -70 0
-172 -169 -171 -69 -72 -70 0
174 171 -69 0
174 -171 69 0
-174 171 69 0
-174 -171 -69 0
173 72 -70 0
173 -72 70 0
-173 72 70 0
-173 -72 -70 0
175 -172 174 0
175 -172 68 0
-175 172 174 0
-175 172 68 0
175 -172 67 -70 0
175 -172 -67 70 0
-175 172 67 -70 0
-175 172 -67 70 0
175 172 -174 67 70 -68 0
175 172 -174 -67 -70 -68 0
-175 -172 -174 67 70 -68 0
-175 -172 -174 -67 -70 -68 0
177 174 -67 0
177 -174 67 0
-177 174 67 0
-177 -174 -67 0
176 70 -68 0
176 -70 68 0
-176 70 68 0
-176 -70 -68 0
178 -175 177 0
178 -175 66 0
-178 175 177 0
-178 175 66 0
178 -175 65 -68 0
178 -175 -65 68 0
-178 175 65 -68 0
-178 175 -65 68 0
178 175 -177 65 68 -66 0
178 175 -177 -65 -68 -66 0
-178 -175 -177 65 68 -66 0
-178 -175 -177 -65 -68 -66 0
180 177 -65 0
180 -177 65 0
-180 177 65 0
-180 -177 -65 0
179 68 -66 0
179 -68 66 0
-179 68 66 0
-179 -68 -66 0
181 -178 180 0
181 -178 64 0
-181 178 180 0
-181 178 64 0
181 -178 63 -66 0
181 -178 -63 66 0
-181 178 63 -66 0
-181 178 -63 66 0
181 178 -180 63 66 -64 0
181 178 -180 -63 -66 -64 0
-181 -178 -180 63 66 -64 0
-181 -178 -180 -63 -66 -64 0
183 180 -63 0
183 -180 63 0
-183 180 63 0
-183 -180 -63 0
182 66 -64 0
182 -66 64 0
-182 66 64 0
-182 -66 -64 0
184 -181 183 0
184 -181 62 0
-184 181 183 0
-184 181 62 0
184 -181 61 -64 0
184 -181 -61 64 0
-184 181 61 -64 0
-184 181 -61 64 0
184 181 -183 61 64 -62 0
184 181 -183 -61 -64 -62 0
-184 -181 -183 61 64 -62 0
-184 -181 -183 -61 -64 -62 0
186 183 -61 0
186 -183 61 0
-186 183 61 0
-186 -183 -61 0
185 64 -62 0
185 -64 62 0
-185 64 62 0
-185 -64 -62 0
187 -184 186 0
187 -184 60 0
-187 184 186 0
-187 184 60 0
187 -184 59 -62 0
187 -184 -59 62 0
-187 184 59 -62 0
-187 184 -59 62 0
187 184 -186 59 62 -60 0
187 184 -186 -59 -62 -60 0
-187 -184 -186 59 62 -60 0
-187 -184 -186 -59 -62 -60 0
189 186 -59 0
189 -186 59 0
-189 186 59 0
-189 -186 -59 0
188 62 -60 0
188 -62 60 0
-188 62 60 0
-188 -62 -60 0
190 -187 189 0
190 -187 58 0
-190 187 189 0
-190 187 58 0
190 -187 57 -60 0
190 -187 -57 60 0
-190 187 57 -60 0
-190 187 -57 60 0
190 187 -189 57 60 -58 0
190 187 -189 -57 -60 -58 0
-190 -187 -189 57 60 -58 0
-190 -187 -189 -57 -60 -58 0
192 189 -57 0
192 -189 57 0
-192 189 57 0
-192 -189 -57 0
191 60 -58 0
191 -60 58 0
-191 60 58 0
-191 -60 -58 0
193 -190 192 0
193 -190 56 0
-193 190 192 0
-193 190 56 0
193 -190 55 -58 0
193 -190 -55 58 0
-193 190 55 -58 0
-193 190 -55 58 0
193 190 -192 55 58 -56 0
193 190 -192 -55 -58 -56 0
-193 -190 -192 55 58 -56 0
-193 -190 -192 -55 -58 -56 0
195 192 -55 0
195 -192 55 0
-195 192 55 0
-195 -192 -55 0
194 58 -56 0
194 -58 56 0
-194 58 56 0
-194 -58 -56 0
196 -193 195 0
196 -193 54 0
-196 193 195 0
-196 193 54 0
196 -193 53 -56 0
196 -193 -53 56 0
-196 193 53 -56 0
-196 193 -53 56 0
196 193 -195 53 56 -54 0
196 193 -195 -53 -56 -54 0
-196 -193 -195 53 56 -54 0
-196 -193 -195 -53 -56 -54 0
198 195 -53 0
198 -195 53 0
-198 195 53 0
-198 -195 -53 0
197 56 -54 0
197 -56 54 0
-197 56 54 0
-197 -56 -54 0
199 -196 198 0
199 -196 52 0
-199 196 198 0
-199 196 52 0
199 -196 51 -54 0
199 -196 -51 54 0
-199 196 51 -54 0
-199 196 -51 54 0
199 196 -198 51 54 -52 0
199 196 -198 -51 -54 -52 0
-199 -196 -198 51 54 -52 0
-199 -196 -198 -51 -54 -52 0
201 198 -51 0
201 -198 51 0
-201 198 51 0
-201 -198 -51 0
200 54 -52 0
200 -54 52 0
-200 54 52 0
-200 -54 -52 0
202 -199 201 0
202 -199 50 0
-202 199 201 0
-202 199 50 0
202 -199 49 -52 0
202 -199 -49 52 0
-202 199 49 -52 0
-202 199 -49 52 0
202 199 -201 49 52 -50 0
202 199 -201 -49 -52 -50 0
-202 -199 -201 49 52 -50 0
-202 -199 -201 -49 -52 -50 0
204 201 -49 0
204 -201 49 0
-204 201 49 0
-204 -201 -49 0
203 52 -50 0
203 -52 50 0
-203 52 50 0
-203 -52 -50 0
205 -202 204 0
205 -202 48 0
-205 202 204 0
-205 202 48 0
205 -202 47 -50 0
205 -202 -47 50 0
-205 202 47 -50 0
-205 202 -47 50 0
205 202 -204 47 50 -48 0
205 202 -204 -47 -50 -48 0
-205 -202 -204 47 50 -48 0
-205 -202 -204 -47 -50 -48 0
207 204 -47 0
207 -204 47 0
-207 204 47 0
-207 -204 -47 0
206 50 -48 0
206 -50 48 0
-206 50 48 0
-206 -50 -48 0
208 -205 207 0
208 -205 46 0
-208 205 207 0
-208 205 46 0
208 -205 45 -48 0
208 -205 -45 48 0
-208 205 45 -48 0
-208 205 -45 48 0
208 205 -207 45 48 -46 0
208 205 -207 -45 -48 -46 0
-208 -205 -207 45 48 -46 0
-208 -205 -207 -45 -48 -46 0
210 207 -45 0
210 -207 45 0
-210 207 45 0
-210 -207 -45 0
209 48 -46 0
209 -48 46 0
-209 48 46 0
-209 -48 -46 0
211 -208 210 0
211 -208 44 0
-211 208 210 0
-211 208 44 0
211 -208 43 -46 0
211 -208 -43 46 0
-211 208 43 -46 0
-211 208 -43 46 0
211 208 -210 43 46 -44 0
211 208 -210 -43 -46 -44 0
-211 -208 -210 43 46 -44 0
-211 -208 -210 -43 -46 -44 0
213 210 -43 0
213 -210 43 0
-213 210 43 0
-213 -210 -43 0
212 46 -44 0
212 -46 44 0
-212 46 44 0
-212 -46 -44 0
214 -211 213 0
214 -211 42 0
-214 211 213 0
-214 211 42 0
214 -211 41 -44 0
214 -211 -41 44 0
-214 211 41 -44 0
-214 211 -41 44 0
214 211 -213 41 44 -42 0
214 211 -213 -41 -44 -42 0
-214 -211 -213 41 44 -42 0
-214 -211 -213 -41 -44 -42 0
216 213 -41 0
216 -213 41 0
-216 213 41 0
-216 -213 -41 0
215 44 -42 0
215 -44 42 0
-215 44 42 0
-215 -44 -42 0
217 -214 216 0
217 -214 40 0
-217 214 216 0
-217 214 40 0
217 -214 39 -42 0
217 -214 -39 42 0
-217 214 39 -42 0
-217 214 -39 42 0
217 214 -216 39 42 -40 0
217 214 -216 -39 -42 -40 0
-217 -214 -216 39 42 -40 0
-217 -214 -216 -39 -42 -40 0
219 216 -39 0
219 -216 39 0
-219 216 39 0
-219 -216 -39 0
218 42 -40 0
218 -42 40 0
-218 42 40 0
-218 -42 -40 0
220 -217 219 0
220 -217 38 0
-220 217 219 0
-220 217 38 0
220 -217 37 -40 0
220 -217 -37 40 0
-220 217 37 -40 0
-220 217 -37 40 0
220 217 -219 37 40 -38 0
220 217 -219 -37 -40 -38 0
-220 -217 -219 37 40 -38 0
-220 -217 -219 -37 -40 -38 0
222 219 -37 0
222 -219 37 0
-222 219 37 0
-222 -219 -37 0
221 40 -38 0
221 -40 38 0
-221 40 38 0
-221 -40 -38 0
223 -220 222 0
223 -220 36 0
-223 220 222 0
-223 220 36 0
223 -220 35 -38 0
223 -220 -35 38 0
-223 220 35 -38 0
-223 220 -35 38 0
223 220 -222 35 38 -36 0
223 220 -222 -35 -38 -36 0
-223 -220 -222 35 38 -36 0
-223 -220 -222 -35 -38 -36 0
225 222 -35 0
225 -222 35 0
-225 222 35 0
-225 -222 -35 0
224 38 -36 0
224 -38 36 0
-224 38 36 0
-224 -38 -36 0
226 -223 225 0
226 -223 34 0
-226 223 225 0
-226 223 34 0
226 -223 33 -36 0
226 -223 -33 36 0
-226 223 33 -36 0
-226 223 -33 36 0
226 223 -225 33 36 -34 0
226 223 -225 -33 -36 -34 0
-226 -223 -225 33 36 -34 0
-226 -223 -225 -33 -36 -34 0
228 225 -33 0
228 -225 33 0
-228 225 33 0
-228 -225 -33 0
227 36 -34 0
227 -36 34 0
-227 36 34 0
-227 -36 -34 0
229 -226 228 0
229 -226 32 0
-229 226 228 0
-229 226 32 0
229 -226 31 -34 0
229 -226 -31 34 0
-229 226 31 -34 0
-229 226 -31 34 0
229 226 -228 31 34 -32 0
229 226 -228 -31 -34 -32 0
-229 -226 -228 31 34 -32 0
-229 -226 -228 -31 -34 -32 0
231 228 -31 0
231 -228 31 0
-231 228 31 0
-231 -228 -31 0
230 34 -32 0
230 -34 32 0
-230 34 32 0
-230 -34 -32 0
232 -229 231 0
232 -229 30 0
-232 229 231 0
-232 229 30 0
232 -229 29 -32 0
232 -229 -29 32 0
-232 229 29 -32 0
-232 229 -29 32 0
232 229 -231 29 32 -30 0
232 229 -231 -29 -32 -30 0
-232 -229 -231 29 32 -30 0
-232 -229 -231 -29 -32 -30 0
234 231 -29 0
234 -231 29 0
-234 231 29 0
-234 -231 -29 0
233 32 -30 0
233 -32 30 0
-233 32 30 0
-233 -32 -30 0
235 -232 234 0
235 -232 28 0
-235 232 234 0
-235 232 28 0
235 -232 27 -30 0
235 -232 -27 30 0
-235 232 27 -30 0
-235 232 -27 30 0
235 232 -234 27 30 -28 0
235 232 -234 -27 -30 -28 0
-235 -232 -234 27 30 -28 0
-235 -232 -234 -27 -30 -28 0
237 234 -27 0
237 -234 27 0
-237 234 27 0
-237 -234 -27 0
236 30 -28 0
236 -30 28 0
-236 30 28 0
-236 -30 -28 0
238 -235 237 0
238 -235 26 0
-238 235 237 0
-238 235 26 0
238 -235 25 -28 0
238 -235 -25 28 0
-238 235 25 -28 0
-238 235 -25 28 0
238 235 -237 25 28 -26 0
238 235 -237 -25 -28 -26 0
-238 -235 -237 25 28 -26 0
-238 -235 -237 -25 -28 -26 0
240 237 -25 0
240 -237 25 0
-240 237 25 0
-240 -237 -25 0
239 28 -26 0
239 -28 26 0
-239 28 26 0
-239 -28 -26 0
241 -238 240 0
241 -238 24 0
-241 238 240 0
-241 238 24 0
241 -238 23 -26 0
241 -238 -23 26 0
-241 238 23 -26 0
-241 238 -23 26 0
241 238 -240 23 26 -24 0
241 238 -240 -23 -26 -24 0
-241 -238 -240 23 26 -24 0
-241 -238 -240 -23 -26 -24 0
243 240 -23 0
243 -240 23 0
-243 240 23 0
-243 -240 -23 0
242 26 -24 0
242 -26 24 0
-242 26 24 0
-242 -26 -24 0
244 -241 243 0
244 -241 22 0
-244 241 243 0
-244 241 22 0
244 -241 21 -24 0
244 -241 -21 24 0
-244 241 21 -24 0
-244 241 -21 24 0
244 241 -243 21 24 -22 0
244 241 -243 -21 -24 -22 0
-244 -241 -243 21 24 -22 0
-244 -241 -243 -21 -24 -22 0
246 243 -21 0
246 -243 21 0
-246 243 21 0
-246 -243 -21 0
245 24 -22 0
245 -24 22 0
-245 24 22 0
-245 -24 -22 0
247 -244 246 0
247 -244 20 0
-247 244 246 0
-247 244 20 0
247 -244 19 -22 0
247 -244 -19 22 0
-247 244 19 -22 0
-247 244 -19 22 0
247 244 -246 19 22 -20 0
247 244 -246 -19 -22 -20 0
-247 -244 -246 19 22 -20 0
-247 -244 -246 -19 -22 -20 0
249 246 -19 0
249 -246 19 0
-249 246 19 0
-249 -246 -19 0
248 22 -20 0
248 -22 20 0
-248 22 20 0
-248 -22 -20 0
250 -247 249 0
250 -247 18 0
-250 247 249 0
-250 247 18 0
250 -247 17 -20 0
250 -247 -17 20 0
-250 247 17 -20 0
-250 247 -17 20 0
250 247 -249 17 20 -18 0
250 247 -249 -17 -20 -18 0
-250 -247 -249 17 20 -18 0
-250 -247 -249 -17 -20 -18 0
252 249 -17 0
252 -249 17 0
-252 249 17 0
-252 -249 -17 0
251 20 -18 0
251 -20 18 0
-251 20 18 0
-251 -20 -18 0
253 -250 252 0
253 -250 16 0
-253 250 252 0
-253 250 16 0
253 -250 15 -18 0
253 -250 -15 18 0
-253 250 15 -18 0
-253 250 -15 18 0
253 250 -252 15 18 -16 0
253 250 -252 -15 -18 -16 0
-253 -250 -252 15 18 -16 0
-253 -250 -252 -15 -18 -16 0
255 252 -15 0
255 -252 15 0
-255 252 15 0
-255 -252 -15 0
254 18 -16 0
254 -18 16 0
-254 18 16 0
-254 -18 -16 0
256 -253 255 0
256 -253 14 0
-256 253 255 0
-256 253 14 0
256 -253 13 -16 0
256 -253 -13 16 0
-256 253 13 -16 0
-256 253 -13 16 0
256 253 -255 13 16 -14 0
256 253 -255 -13 -16 -14 0
-256 -253 -255 13 16 -14 0
-256 -253 -255 -13 -16 -14 0
258 255 -13 0
258 -255 13 0
-258 255 13 0
-258 -255 -13 0
257 16 -14 0
257 -16 14 0
-257 16 14 0
-257 -16 -14 0
259 -256 258 0
259 -256 12 0
-259 256 258 0
-259 256 12 0
259 -256 11 -14 0
259 -256 -11 14 0
-259 256 11 -14 0
-259 256 -11 14 0
259 256 -258 11 14 -12 0
259 256 -258 -11 -14 -12 0
-259 -256 -258 11 14 -12 0
-259 -256 -258 -11 -14 -12 0
261 258 -11 0
261 -258 11 0
-261 258 11 0
-261 -258 -11 0
260 14 -12 0
260 -14 12 0
-260 14 12 0
-260 -14 -12 0
262 -259 261 0
262 -259 10 0
-262 259 261 0
-262 259 10 0
262 -259 9 -12 0
262 -259 -9 12 0
-262 259 9 -12 0
-262 259 -9 12 0
262 259 -261 9 12 -10 0
262 259 -261 -9 -12 -10 0
-262 -259 -261 9 12 -10 0
-262 -259 -261 -9 -12 -10 0
264 261 -9 0
264 -261 9 0
-264 261 9 0
-264 -261 -9 0
263 12 -10 0
263 -12 10 0
-263 12 10 0
-263 -12 -10 0
265 -262 264 0
265 -262 8 0
-265 262 264 0
-265 262 8 0
265 -262 7 -10 0
265 -262 -7 10 0
-265 262 7 -10 0
-265 262 -7 10 0
265 262 -264 7 10 -8 0
265 262 -264 -7 -10 -8 0
-265 -262 -264 7 10 -8 0
-265 -262 -264 -7 -10 -8 0
267 264 -7 0
267 -264 7 0
-267 264 7 0
-267 -264 -7 0
266 10 -8 0
266 -10 8 0
-266 10 8 0
-266 -10 -8 0
268 -265 267 0
268 -265 6 0
-268 265 267 0
-268 265 6 0
268 -265 5 -8 0
268 -265 -5 8 0
-268 265 5 -8 0
-268 265 -5 8 0
268 265 -267 5 8 -6 0
268 265 -267 -5 -8 -6 0
-268 -265 -267 5 8 -6 0
-268 -265 -267 -5 -8 -6 0
270 267 -5 0
270 -267 5 0
-270 267 5 0
-270 -267 -5 0
269 8 -6 0
269 -8 6 0
-269 8 6 0
-269 -8 -6 0
271 -268 270 0
271 -268 4 0
-271 268 270 0
-271 268 4 0
271 -268 3 -6 0
271 -268 -3 6 0
-271 268 3 -6 0
-271 268 -3 6 0
271 268 -270 3 6 -4 0
271 268 -270 -3 -6 -4 0
-271 -268 -270 3 6 -4 0
-271 -268 -270 -3 -6 -4 0
273 270 -3 0
273 -270 3 0
-273 270 3 0
-273 -270 -3 0
272 6 -4 0
272 -6 4 0
-272 6 4 0
-272 -6 -4 0
274 -271 273 0
274 -271 2 0
-274 271 273 0
-274 271 2 0
274 -271 1 -4 0
274 -271 -1 4 0
-274 271 1 -4 0
-274 271 -1 4 0
274 271 -273 1 4 -2 0
274 271 -273 -1 -4 -2 0
-274 -271 -273 1 4 -2 0
-274 -271 -273 -1 -4 -2 0
276 273 -1 0
276 -273 1 0
-276 273 1 0
-276 -273 -1 0
275 4 -2 0
275 -4 2 0
-275 4 2 0
-275 -4 -2 0
